sing20160407.00
TTAA 57001 48698
99009 27231 07001 00100 26633 31505 92786 23262 03504
85520 19047 28008 70164 10859 15505 50590 01963 06022
40763 13759 07019 30976 29163 12507 25103 39156 13018
20252 51542 19513 15432 66556 20009 10667 80558 03513
88105 81157 01513
77999=
TTCC 57005 48698
70868 73367 23012 50063 75365 08006
88999
77999=
TTDD 5700/ 48698
11777 84157 22776 84157 33753 82559 44737 73964 55666
72367 66582 76964 77467 74366
21212 11970 08018 22890 11532 33832 07525 44761 09029
55744 10517 66737 11510 77726 17005 88711 22510 99670
27027 11629 29025 22591 27531 33550 30510 44509 35001
55494 08510 66483 07016 77467 11017=
